proyfinal/src/viki/013/andrea/andrea-localstore/experimentInOfficeAgust.take6/worker_10/3ea15a58-0930-441a-9826-15999a7301f8.als.cnf.out
Reading from standard input... Use '--help' for help.
============================[ Problem Statistics ]=============================
|                                                                             |
|  Number of variables:         87638                                         |
|  Number of clauses:          161767                                         |
|  Parse time:                   0.04 s                                       |
|                                                                             |
============================[ Search Statistics ]==============================
| Conflicts |          ORIGINAL         |          LEARNT          | Progress |
|           |    Vars  Clauses Literals |    Limit  Clauses Lit/Cl |          |
===============================================================================
|       100 |   63869   110535   276122 |    40529      100     10 | 27.122 % |
|       250 |   63869   110535   276122 |    44582      250     43 | 27.122 % |
|       475 |   63869   110535   276122 |    49040      475     56 | 27.122 % |
|       812 |   63868   110491   276032 |    53944      811     51 | 27.123 % |
|      1318 |   63868   110491   276032 |    59339     1317     75 | 27.123 % |
|      2077 |   63868   110491   276032 |    65273     2076     70 | 27.123 % |
|      3216 |   63868   110491   276032 |    71800     3215    120 | 27.123 % |
|      4924 |   55188    84039   211093 |    78980     4888    101 | 37.027 % |
|      7486 |   55051    83843   210654 |    86878     7377     87 | 37.184 % |
|     11330 |   55050    83499   209855 |    95566    11205     86 | 37.185 % |
|     17096 |   54847    82624   207765 |   105123    16954     84 | 37.416 % |
===============================================================================
restarts              : 80
conflicts             : 22622          (6591 /sec)
decisions             : 81366          (0.00 % random) (23707 /sec)
propagations          : 33766365       (9838240 /sec)
conflict literals     : 1888002        (41.28 % deleted)
Memory used           : 44.56 MB
CPU time              : 3.43215 s

INDETERMINATE
